c nombre: 20
c densidad: 0.3
p edges 90 1199
e 1 4
e 1 10
e 1 16
e 1 18
e 1 19
e 1 20
e 1 22
e 1 23
e 1 25
e 1 26
e 1 28
e 1 29
e 1 32
e 1 34
e 1 38
e 1 40
e 1 41
e 1 42
e 1 46
e 1 49
e 1 53
e 1 56
e 1 60
e 1 63
e 1 72
e 1 80
e 1 86
e 2 10
e 2 11
e 2 16
e 2 18
e 2 24
e 2 25
e 2 26
e 2 30
e 2 32
e 2 33
e 2 40
e 2 41
e 2 48
e 2 49
e 2 52
e 2 53
e 2 55
e 2 56
e 2 57
e 2 59
e 2 61
e 2 65
e 2 66
e 2 67
e 2 69
e 2 72
e 2 79
e 2 80
e 2 81
e 2 83
e 2 84
e 2 89
e 3 4
e 3 5
e 3 6
e 3 10
e 3 13
e 3 16
e 3 21
e 3 31
e 3 33
e 3 36
e 3 40
e 3 43
e 3 48
e 3 51
e 3 53
e 3 54
e 3 65
e 3 68
e 3 69
e 3 71
e 3 74
e 3 75
e 3 79
e 3 82
e 3 85
e 4 6
e 4 7
e 4 17
e 4 18
e 4 24
e 4 27
e 4 28
e 4 33
e 4 34
e 4 36
e 4 39
e 4 40
e 4 41
e 4 43
e 4 45
e 4 48
e 4 50
e 4 58
e 4 68
e 4 70
e 4 72
e 4 77
e 4 78
e 4 81
e 4 90
e 5 7
e 5 9
e 5 11
e 5 12
e 5 18
e 5 22
e 5 25
e 5 29
e 5 31
e 5 35
e 5 39
e 5 41
e 5 43
e 5 44
e 5 46
e 5 47
e 5 49
e 5 51
e 5 57
e 5 63
e 5 65
e 5 75
e 5 78
e 5 79
e 5 82
e 5 84
e 5 90
e 6 11
e 6 12
e 6 23
e 6 28
e 6 30
e 6 44
e 6 49
e 6 54
e 6 55
e 6 62
e 6 64
e 6 68
e 6 73
e 6 74
e 6 75
e 6 78
e 6 79
e 6 82
e 6 83
e 6 85
e 7 13
e 7 17
e 7 23
e 7 26
e 7 28
e 7 31
e 7 33
e 7 41
e 7 42
e 7 46
e 7 48
e 7 54
e 7 55
e 7 57
e 7 58
e 7 65
e 7 72
e 7 73
e 7 76
e 7 79
e 7 82
e 7 85
e 7 90
e 8 16
e 8 19
e 8 20
e 8 21
e 8 30
e 8 34
e 8 35
e 8 36
e 8 38
e 8 39
e 8 43
e 8 46
e 8 48
e 8 53
e 8 58
e 8 66
e 8 68
e 8 69
e 8 70
e 8 72
e 8 78
e 8 84
e 8 85
e 8 88
e 8 90
e 9 11
e 9 19
e 9 21
e 9 22
e 9 24
e 9 26
e 9 29
e 9 36
e 9 41
e 9 42
e 9 45
e 9 54
e 9 63
e 9 65
e 9 71
e 9 73
e 9 76
e 9 81
e 9 86
e 9 87
e 9 90
e 10 11
e 10 12
e 10 14
e 10 15
e 10 19
e 10 23
e 10 25
e 10 29
e 10 32
e 10 34
e 10 35
e 10 36
e 10 38
e 10 41
e 10 51
e 10 55
e 10 56
e 10 58
e 10 61
e 10 69
e 10 75
e 10 77
e 10 83
e 10 87
e 10 88
e 11 19
e 11 20
e 11 23
e 11 24
e 11 28
e 11 40
e 11 41
e 11 48
e 11 51
e 11 52
e 11 54
e 11 58
e 11 63
e 11 66
e 11 73
e 11 83
e 11 84
e 12 13
e 12 16
e 12 19
e 12 25
e 12 27
e 12 29
e 12 33
e 12 34
e 12 36
e 12 37
e 12 44
e 12 47
e 12 48
e 12 51
e 12 53
e 12 57
e 12 59
e 12 60
e 12 61
e 12 68
e 12 77
e 12 78
e 12 79
e 12 80
e 12 83
e 12 87
e 12 89
e 13 14
e 13 15
e 13 16
e 13 17
e 13 21
e 13 26
e 13 29
e 13 32
e 13 36
e 13 37
e 13 39
e 13 44
e 13 45
e 13 47
e 13 48
e 13 58
e 13 59
e 13 68
e 13 74
e 13 77
e 13 85
e 13 87
e 14 15
e 14 21
e 14 24
e 14 26
e 14 29
e 14 31
e 14 32
e 14 36
e 14 38
e 14 41
e 14 42
e 14 48
e 14 57
e 14 59
e 14 60
e 14 61
e 14 62
e 14 76
e 14 79
e 14 80
e 14 84
e 15 17
e 15 19
e 15 25
e 15 26
e 15 34
e 15 39
e 15 49
e 15 51
e 15 53
e 15 54
e 15 55
e 15 58
e 15 59
e 15 60
e 15 61
e 15 67
e 15 69
e 15 71
e 15 72
e 15 73
e 15 77
e 15 78
e 15 83
e 15 88
e 16 19
e 16 20
e 16 26
e 16 27
e 16 29
e 16 36
e 16 40
e 16 45
e 16 46
e 16 49
e 16 56
e 16 58
e 16 62
e 16 71
e 16 72
e 16 75
e 16 77
e 16 80
e 16 81
e 17 19
e 17 24
e 17 28
e 17 48
e 17 51
e 17 52
e 17 54
e 17 58
e 17 59
e 17 67
e 17 79
e 17 81
e 17 82
e 17 85
e 17 88
e 18 19
e 18 21
e 18 23
e 18 25
e 18 29
e 18 30
e 18 34
e 18 43
e 18 44
e 18 48
e 18 49
e 18 52
e 18 53
e 18 57
e 18 58
e 18 62
e 18 63
e 18 64
e 18 68
e 18 70
e 18 77
e 18 78
e 18 80
e 18 82
e 18 85
e 18 86
e 18 87
e 18 90
e 19 23
e 19 24
e 19 27
e 19 28
e 19 32
e 19 35
e 19 36
e 19 41
e 19 42
e 19 44
e 19 45
e 19 49
e 19 51
e 19 52
e 19 54
e 19 55
e 19 57
e 19 63
e 19 65
e 19 66
e 19 74
e 19 78
e 19 79
e 19 82
e 19 86
e 20 22
e 20 23
e 20 26
e 20 27
e 20 29
e 20 31
e 20 35
e 20 36
e 20 42
e 20 47
e 20 52
e 20 59
e 20 67
e 20 68
e 20 77
e 20 79
e 20 84
e 20 89
e 21 25
e 21 28
e 21 36
e 21 38
e 21 40
e 21 41
e 21 42
e 21 47
e 21 48
e 21 54
e 21 56
e 21 59
e 21 62
e 21 64
e 21 66
e 21 67
e 21 68
e 21 69
e 21 72
e 21 75
e 21 80
e 22 27
e 22 32
e 22 33
e 22 34
e 22 35
e 22 37
e 22 39
e 22 43
e 22 48
e 22 50
e 22 57
e 22 61
e 22 62
e 22 64
e 22 66
e 22 70
e 22 71
e 22 72
e 22 74
e 22 77
e 22 78
e 22 79
e 22 81
e 22 84
e 22 85
e 22 86
e 22 88
e 22 89
e 23 25
e 23 30
e 23 31
e 23 34
e 23 38
e 23 41
e 23 50
e 23 53
e 23 54
e 23 56
e 23 63
e 23 65
e 23 77
e 23 89
e 24 27
e 24 32
e 24 33
e 24 36
e 24 40
e 24 42
e 24 46
e 24 47
e 24 48
e 24 50
e 24 51
e 24 55
e 24 57
e 24 59
e 24 64
e 24 65
e 24 67
e 24 70
e 24 73
e 24 74
e 24 79
e 24 80
e 24 83
e 24 87
e 24 90
e 25 33
e 25 36
e 25 37
e 25 38
e 25 46
e 25 49
e 25 57
e 25 58
e 25 59
e 25 61
e 25 63
e 25 64
e 25 65
e 25 66
e 25 69
e 25 72
e 25 73
e 25 75
e 25 80
e 25 81
e 25 85
e 25 86
e 25 89
e 26 28
e 26 30
e 26 32
e 26 33
e 26 38
e 26 50
e 26 51
e 26 52
e 26 53
e 26 62
e 26 65
e 26 73
e 26 75
e 26 81
e 26 89
e 27 28
e 27 31
e 27 35
e 27 37
e 27 42
e 27 52
e 27 54
e 27 55
e 27 57
e 27 60
e 27 66
e 27 67
e 27 71
e 27 74
e 27 75
e 27 78
e 27 82
e 27 87
e 27 89
e 28 33
e 28 39
e 28 42
e 28 44
e 28 45
e 28 46
e 28 50
e 28 54
e 28 55
e 28 61
e 28 63
e 28 64
e 28 68
e 28 69
e 28 72
e 28 82
e 28 87
e 28 88
e 28 89
e 29 31
e 29 35
e 29 38
e 29 42
e 29 44
e 29 46
e 29 48
e 29 50
e 29 51
e 29 53
e 29 55
e 29 59
e 29 60
e 29 61
e 29 62
e 29 74
e 29 75
e 29 76
e 29 77
e 29 78
e 29 85
e 29 86
e 29 87
e 29 90
e 30 31
e 30 36
e 30 38
e 30 42
e 30 44
e 30 45
e 30 52
e 30 72
e 30 73
e 30 76
e 30 80
e 30 82
e 30 88
e 31 34
e 31 38
e 31 42
e 31 44
e 31 45
e 31 49
e 31 51
e 31 57
e 31 59
e 31 60
e 31 61
e 31 63
e 31 65
e 31 67
e 31 71
e 31 76
e 31 78
e 31 83
e 31 85
e 32 37
e 32 39
e 32 45
e 32 50
e 32 52
e 32 55
e 32 56
e 32 58
e 32 59
e 32 60
e 32 64
e 32 70
e 32 76
e 32 80
e 32 83
e 32 85
e 32 86
e 33 34
e 33 35
e 33 38
e 33 41
e 33 44
e 33 45
e 33 50
e 33 51
e 33 54
e 33 63
e 33 66
e 33 68
e 33 73
e 33 76
e 33 77
e 33 79
e 33 82
e 33 85
e 33 86
e 33 87
e 34 35
e 34 36
e 34 38
e 34 45
e 34 53
e 34 55
e 34 56
e 34 70
e 34 72
e 34 79
e 34 83
e 34 84
e 34 87
e 34 88
e 34 89
e 35 36
e 35 37
e 35 42
e 35 47
e 35 53
e 35 54
e 35 63
e 35 64
e 35 65
e 35 68
e 35 69
e 35 72
e 35 74
e 35 79
e 35 83
e 35 84
e 35 86
e 36 44
e 36 47
e 36 49
e 36 55
e 36 57
e 36 60
e 36 65
e 36 72
e 36 73
e 36 76
e 36 77
e 36 80
e 36 81
e 36 85
e 36 88
e 37 40
e 37 42
e 37 47
e 37 49
e 37 50
e 37 51
e 37 57
e 37 59
e 37 64
e 37 69
e 37 74
e 37 76
e 37 79
e 37 82
e 37 83
e 38 43
e 38 44
e 38 50
e 38 53
e 38 59
e 38 60
e 38 61
e 38 62
e 38 68
e 38 70
e 38 71
e 38 74
e 38 77
e 38 83
e 38 87
e 38 88
e 39 40
e 39 49
e 39 50
e 39 52
e 39 55
e 39 57
e 39 63
e 39 65
e 39 70
e 39 72
e 39 76
e 39 77
e 39 80
e 39 83
e 39 84
e 39 86
e 39 90
e 40 45
e 40 50
e 40 53
e 40 55
e 40 58
e 40 59
e 40 66
e 40 68
e 40 69
e 40 71
e 40 73
e 40 76
e 40 80
e 40 83
e 40 87
e 40 88
e 41 43
e 41 44
e 41 55
e 41 57
e 41 58
e 41 61
e 41 65
e 41 67
e 41 71
e 41 72
e 41 74
e 41 75
e 41 80
e 41 82
e 41 83
e 41 86
e 41 90
e 42 45
e 42 48
e 42 53
e 42 57
e 42 58
e 42 61
e 42 63
e 42 66
e 42 68
e 42 71
e 42 79
e 42 86
e 43 44
e 43 49
e 43 51
e 43 53
e 43 56
e 43 64
e 43 66
e 43 68
e 43 72
e 43 73
e 43 75
e 43 81
e 43 88
e 43 90
e 44 46
e 44 48
e 44 53
e 44 57
e 44 59
e 44 62
e 44 64
e 44 65
e 44 66
e 44 70
e 44 71
e 44 73
e 44 77
e 44 79
e 44 83
e 45 47
e 45 53
e 45 54
e 45 66
e 45 69
e 45 70
e 45 71
e 45 72
e 45 79
e 45 81
e 45 82
e 45 84
e 45 86
e 45 90
e 46 52
e 46 54
e 46 55
e 46 56
e 46 57
e 46 59
e 46 61
e 46 70
e 46 73
e 46 78
e 46 82
e 46 85
e 46 90
e 47 50
e 47 52
e 47 56
e 47 59
e 47 65
e 47 67
e 47 70
e 47 77
e 47 82
e 47 84
e 47 86
e 47 87
e 47 90
e 48 49
e 48 53
e 48 54
e 48 55
e 48 56
e 48 59
e 48 61
e 48 63
e 48 66
e 48 72
e 48 75
e 48 79
e 48 81
e 48 85
e 48 89
e 49 50
e 49 51
e 49 52
e 49 58
e 49 61
e 49 62
e 49 67
e 49 68
e 49 73
e 49 77
e 49 84
e 49 86
e 49 88
e 50 51
e 50 57
e 50 59
e 50 65
e 50 66
e 50 67
e 50 68
e 50 80
e 50 81
e 50 85
e 51 52
e 51 54
e 51 61
e 51 66
e 51 68
e 51 72
e 51 74
e 51 79
e 51 85
e 51 90
e 52 54
e 52 63
e 52 64
e 52 74
e 52 76
e 52 77
e 52 89
e 53 54
e 53 56
e 53 57
e 53 60
e 53 61
e 53 64
e 53 65
e 53 68
e 53 73
e 53 74
e 53 79
e 53 82
e 53 84
e 53 85
e 53 87
e 53 89
e 53 90
e 54 61
e 54 62
e 54 63
e 54 76
e 54 84
e 54 86
e 54 90
e 55 56
e 55 58
e 55 59
e 55 60
e 55 65
e 55 67
e 55 72
e 55 74
e 55 76
e 55 78
e 55 88
e 55 90
e 56 57
e 56 60
e 56 62
e 56 68
e 56 71
e 56 73
e 56 74
e 56 75
e 56 78
e 56 83
e 56 90
e 57 58
e 57 59
e 57 60
e 57 64
e 57 66
e 57 74
e 57 79
e 57 81
e 57 83
e 57 86
e 57 88
e 57 89
e 58 59
e 58 62
e 58 63
e 58 71
e 58 72
e 58 82
e 58 85
e 58 86
e 59 68
e 59 74
e 59 76
e 59 81
e 59 82
e 59 85
e 59 87
e 59 90
e 60 61
e 60 65
e 60 73
e 60 76
e 60 82
e 60 86
e 60 88
e 60 90
e 61 62
e 61 63
e 61 65
e 61 67
e 61 70
e 61 75
e 61 78
e 61 79
e 61 89
e 62 64
e 62 67
e 62 70
e 62 71
e 62 72
e 62 78
e 62 80
e 62 81
e 62 84
e 62 86
e 62 87
e 62 88
e 63 64
e 63 72
e 63 74
e 63 87
e 64 66
e 64 67
e 64 69
e 64 71
e 64 72
e 64 78
e 64 80
e 64 82
e 64 84
e 64 86
e 64 89
e 65 74
e 65 82
e 65 88
e 65 89
e 66 69
e 66 74
e 66 75
e 66 76
e 66 79
e 66 82
e 66 84
e 66 86
e 67 69
e 67 74
e 67 76
e 67 80
e 67 86
e 67 88
e 68 72
e 68 81
e 68 86
e 68 88
e 69 73
e 69 74
e 69 81
e 70 72
e 70 77
e 70 80
e 70 87
e 71 74
e 71 75
e 71 78
e 71 80
e 71 84
e 72 80
e 72 85
e 72 88
e 72 89
e 73 75
e 73 78
e 73 83
e 73 84
e 73 87
e 74 75
e 74 76
e 74 78
e 74 79
e 74 86
e 74 88
e 74 90
e 75 76
e 75 78
e 75 80
e 75 85
e 75 86
e 76 78
e 76 80
e 76 83
e 76 90
e 77 80
e 77 85
e 77 86
e 77 88
e 78 80
e 78 85
e 78 86
e 78 89
e 78 90
e 79 80
e 79 82
e 79 87
e 79 89
e 80 83
e 80 86
e 80 87
e 80 90
e 81 83
e 81 87
e 81 89
e 81 90
e 82 87
e 83 85
e 83 87
e 83 90
e 84 85
e 84 88
e 84 90
e 85 86
e 85 87
e 85 89
e 85 90
e 86 88
e 86 90
